
Gurobi 13.0.2 (win64) logging started Thu Jul 23 06:10:37 2026

Set parameter LogFile to value "E:\codes\ExactEBRP\results\gf_cplex_equivalent_gurobi_replica_round28\runs\stage2__tight_T_seed4101__c3_replica__300s\external\native_logs\R.0.1.0.1.0.0.0.0.1.1_terminal_mip.gurobi.log"
Gurobi Optimizer version 13.0.2 build v13.0.2rc1 (win64 - Windows 10.0 (19045.2))

CPU model: 12th Gen Intel(R) Core(TM) i7-12700KF, instruction set [SSE2|AVX|AVX2]
Thread count: 12 physical cores, 20 logical processors, using up to 1 threads

Non-default parameters:
TimeLimit  1.0213265109999998e+02
MIPGap  0
MIPGapAbs  0
LogToConsole  0
Threads  1

Optimize a model with 11897 rows, 3372 columns and 67355 nonzeros (Min)
Model fingerprint: 0xb579bfed
Model has 21 linear objective coefficients
Variable types: 1683 continuous, 1689 integer (1489 binary)
Coefficient statistics:
  Matrix range     [7e-03, 2e+04]
  Objective range  [7e-03, 1e+00]
  Bounds range     [2e-01, 9e+02]
  RHS range        [2e-01, 5e+04]

Presolve removed 1606 rows and 94 columns
Presolve time: 0.21s
Presolved: 10291 rows, 3278 columns, 67757 nonzeros
Variable types: 1629 continuous, 1649 integer (1467 binary)

Root relaxation: objective 4.145729e-01, 2553 iterations, 0.11 seconds (0.28 work units)

    Nodes    |    Current Node    |     Objective Bounds      |     Work
 Expl Unexpl |  Obj  Depth IntInf | Incumbent    BestBd   Gap | It/Node Time

     0     0    0.41457    0  154          -    0.41457      -     -    0s
     0     0    0.43119    0  169          -    0.43119      -     -    0s
     0     0    0.46676    0  242          -    0.46676      -     -    0s
     0     0    0.46802    0  259          -    0.46802      -     -    1s
     0     0    0.50155    0  305          -    0.50155      -     -    1s
     0     0    0.50373    0  300          -    0.50373      -     -    1s
     0     0    0.53634    0  302          -    0.53634      -     -    2s
     0     0    0.54595    0  303          -    0.54595      -     -    2s
     0     0 infeasible    0               - infeasible      -     -    2s

Cutting planes:
  Learned: 9
  Cover: 48
  Implied bound: 144
  Clique: 18
  MIR: 359
  StrongCG: 4
  Flow cover: 63
  GUB cover: 2
  Zero half: 4
  Network: 21
  RLT: 11
  Relax-and-lift: 96
  BQP: 3

Explored 1 nodes (9689 simplex iterations) in 2.96 seconds (4.78 work units)
Thread count was 1 (of 20 available processors)

Solution count 0

Model is infeasible
Best objective -, best bound -, gap -

User-callback calls 1634, time in user-callback 0.00 sec
